NAME : A-n63-k9
COMMENT : (Augerat et al, Min no of trucks: 9, Best value: 1634)
TYPE : CVRP
DIMENSION : 63
EDGE_WEIGHT_TYPE : EUC_2D 
CAPACITY : 100
NODE_COORD_SECTION 
 1 91 93
 2 7 5
 3 27 91
 4 21 47
 5 33 11
 6 19 99
 7 59 25
 8 69 79
 9 11 73
 10 21 35
 11 59 45
 12 99 81
 13 71 47
 14 53 83
 15 87 1
 16 79 67
 17 59 65
 18 67 21
 19 27 1
 20 81 93
 21 59 89
 22 95 23
 23 73 25
 24 41 25
 25 3 65
 26 59 83
 27 83 97
 28 5 83
 29 71 35
 30 37 97
 31 29 93
 32 19 21
 33 83 13
 34 97 67
 35 31 83
 36 65 17
 37 19 63
 38 59 23
 39 17 25
 40 45 27
 41 89 7
 42 19 41
 43 23 39
 44 23 21
 45 83 61
 46 11 93
 47 17 11
 48 35 11
 49 21 59
 50 21 69
 51 71 13
 52 63 13
 53 49 21
 54 83 31
 55 41 97
 56 85 15
 57 77 73
 58 57 1
 59 83 11
 60 1 75
 61 45 71
 62 41 55
 63 45 13
DEMAND_SECTION 
1 0 
2 4 
3 18 
4 22 
5 14 
6 5 
7 9 
8 7 
9 20 
10 19 
11 7 
12 18 
13 20 
14 2 
15 11 
16 10 
17 5 
18 21 
19 20 
20 1 
21 15 
22 15 
23 14 
24 19 
25 22 
26 21 
27 22 
28 6 
29 24 
30 14 
31 14 
32 2 
33 15 
34 21 
35 15 
36 6 
37 23 
38 14 
39 26 
40 15 
41 15 
42 23 
43 7 
44 22 
45 26 
46 20 
47 3 
48 2 
49 15 
50 2 
51 21 
52 12 
53 4 
54 10 
55 23 
56 4 
57 24 
58 17 
59 2 
60 20 
61 18 
62 19 
63 8 
DEPOT_SECTION 
 1  
 -1  
NODE_PRIORITY_SECTION
1 0
2 1
3 4
4 1
5 4
6 3
7 4
8 2
9 3
10 3
11 3
12 1
13 4
14 4
15 2
16 2
17 3
18 4
19 3
20 1
21 3
22 4
23 5
24 4
25 2
26 3
27 1
28 2
29 5
30 4
31 4
32 4
33 4
34 2
35 5
36 4
37 3
38 4
39 4
40 3
41 3
42 2
43 3
44 5
45 3
46 3
47 3
48 4
49 3
50 4
51 4
52 3
53 3
54 5
55 4
56 4
57 2
58 1
59 3
60 2
61 4
62 3
63 3
EOF
